#Exported from 3ds max by MDL Plug-in Suite 1.0b
#http://www.bricksbuilder.com/nwn/utils/
#MAXMODEL ASCII
# model: az2_m06_01
filedependancy az2-mountains.max
newmodel az2_m06_01
setsupermodel az2_m06_01 NULL
classification Tile
setanimationscale 1.0
#MAXGEOM  ASCII
beginmodelgeom az2_m06_01
node dummy az2_m06_01
  parent NULL
endnode
node light az2_m06_01ml1
  parent az2_m06_01
  position -1.18474 -1.35348 4.0386
  orientation 0 0 0 0
  wirecolor 0.105469 0.105469 0.105469
    radius 14
    multiplier 1
    color 0 0 0
    ambientOnly 0
    nDynamicType 0
    affectDynamic 1
    shadow 0
    lightpriority 5
    lensflares 0
    fadingLight 1
endnode
node light az2_m06_01ml2
  parent az2_m06_01
  position 1.3833 1.52465 4
  orientation 0 0 0 0
  wirecolor 0.105469 0.105469 0.105469
    radius 5
    multiplier 1
    color 0.00392157 0.00392157 0.00392157
    ambientOnly 0
    nDynamicType 0
    affectDynamic 1
    shadow 0
    lightpriority 5
    lensflares 0
    fadingLight 1
endnode
node aabb mountain61
  parent az2_m06_01
  position 0 0 -9.75793
  orientation 0 0 1 -1.5708
  wirecolor 0.554688 0.554688 0.554688
  ambient 0.964706 0 1
  diffuse 0.964706 0 1
  specular 0 0 0
  shininess 10
  bitmap NULL
  verts 28
    1.42 5.00003 9.75793
    -1.42 5.00003 9.75793
    5 1.42003 9.39793
    2.77 1.81003 11.1779
    -0.19 2.34003 11.8279
    -5 1.42003 9.75793
    5 -1.41997 9.39793
    1.9 -1.73997 11.5079
    -0.76 -1.89997 11.5079
    -5 -1.41997 9.75793
    1.42 -4.99997 9.75793
    -1.42 -4.99997 9.75793
    5 5.00003 10.7579
    1.92 5.00003 10.7579
    -1.92 5.00003 10.7579
    -5 5.00002 10.7579
    5 1.92003 10.3979
    3.1 2.75003 11.2379
    -2.8 2.66003 10.3979
    -5 1.92003 10.7579
    5 -1.91997 10.3979
    3.1 -2.61997 11.4479
    -2.4 -2.43997 10.9379
    -5 -1.91997 10.7579
    5 -4.99997 10.7579
    1.92 -4.99997 10.7579
    -1.92 -4.99997 10.7579
    -5 -4.99997 10.7579
  faces 34
    16 12 17  1  48 49 50  4
    13 17 12  2  51 52 53  4
    3 0 4  2  54 55 56  4
    1 4 0  1  57 58 59  4
    18 14 19  1  60 61 62  4
    15 19 14  2  63 64 65  4
    6 2 7  4  66 67 68  4
    3 7 2  4  69 70 71  4
    7 3 8  8  72 73 74  4
    4 8 3  16  75 76 77  4
    8 4 9  4  78 79 80  4
    5 9 4  4  81 82 83  4
    24 20 25  1  84 85 86  4
    21 25 20  2  87 88 89  4
    10 7 11  1  90 91 92  4
    8 11 7  1  93 94 95  4
    26 22 27  1  96 97 98  4
    23 27 22  1  99 100 101  4
    3 2 16  32  102 103 104  4
    16 17 3  1  105 106 107  4
    0 3 17  64  108 3 109  4
    17 13 0  4  17 110 111  4
    4 1 14  8  112 113 114  4
    14 18 4  32  115 116 117  4
    5 4 18  64  118 4 119  4
    18 19 5  8  18 120 121  4
    6 7 21  16  122 123 124  4
    21 20 6  8  125 126 127  4
    8 9 23  2  128 129 130  4
    23 22 8  32  131 132 133  4
    7 10 25  32  134 135 136  4
    25 21 7  64  137 21 7  4
    11 8 22  32  138 8 139  4
    22 26 11  2  22 140 141  4
  aabb     -5.00 -5.00 9.40   5.00 5.00 11.83   -1
     -5.00 -5.00 9.40   5.00 2.34 11.83   -1
     -5.00 -5.00 9.76   1.90 2.34 11.83   -1
     -5.00 -5.00 9.76   -0.76 -1.90 11.51   -1
     -5.00 -5.00 10.76   -1.92 -1.92 10.94   -1
     -5.00 -5.00 10.76   -2.40 -1.92 10.94   17
     -5.00 -5.00 10.76   -1.92 -2.44 10.94   16
     -2.40 -5.00 9.76   -0.76 -1.90 11.51   -1
     -2.40 -5.00 9.76   -1.42 -2.44 10.94   33
     -2.40 -5.00 9.76   -0.76 -1.90 11.51   32
     -5.00 -5.00 9.76   1.90 2.34 11.83   -1
     -5.00 -5.00 9.76   1.90 -1.74 11.51   -1
     -5.00 -2.44 10.76   -0.76 -1.90 11.51   29
     -1.42 -5.00 9.76   1.90 -1.74 11.51   15
     -5.00 -1.92 9.76   -0.19 2.34 11.83   -1
     -5.00 -1.92 9.76   -0.76 -1.42 11.51   28
     -5.00 -1.90 9.76   -0.19 2.34 11.83   10
     -1.42 -5.00 9.40   5.00 1.81 11.51   -1
     -1.42 -5.00 9.76   5.00 -1.74 11.51   -1
     -1.42 -5.00 9.76   1.92 -1.74 11.51   -1
     -1.42 -5.00 9.76   1.90 -1.74 11.51   14
     1.42 -5.00 9.76   1.92 -1.74 11.51   30
     1.92 -5.00 10.40   5.00 -1.92 11.45   -1
     1.92 -5.00 10.40   5.00 -1.92 10.76   12
     1.92 -5.00 10.40   5.00 -1.92 11.45   13
     -0.76 -5.00 9.40   5.00 1.81 11.51   -1
     1.90 -5.00 9.40   5.00 -1.42 11.51   -1
     1.90 -5.00 10.76   3.10 -1.74 11.51   31
     3.10 -2.62 9.40   5.00 -1.42 11.45   27
     -0.76 -2.62 9.40   5.00 1.81 11.51   -1
     -0.76 -1.90 11.18   2.77 1.81 11.51   8
     1.90 -2.62 9.40   5.00 1.42 11.51   -1
     1.90 -2.62 9.40   5.00 -1.42 11.51   26
     1.90 -1.74 9.40   5.00 1.42 11.51   6
     -5.00 -1.90 9.40   5.00 5.00 11.83   -1
     -5.00 -1.42 9.76   1.42 5.00 11.83   -1
     -5.00 -1.42 9.76   -0.19 5.00 11.83   -1
     -5.00 -1.42 9.76   -0.19 2.66 11.83   -1
     -5.00 1.42 9.76   -2.80 2.66 10.76   25
     -5.00 -1.42 9.76   -0.19 2.34 11.83   11
     -5.00 1.42 9.76   -0.19 5.00 11.83   -1
     -5.00 1.92 10.40   -1.92 5.00 10.76   4
     -5.00 1.42 9.76   -0.19 2.66 11.83   24
     -5.00 1.92 9.76   1.42 5.00 11.83   -1
     -5.00 1.92 10.40   -0.19 5.00 11.83   -1
     -5.00 1.92 10.76   -1.92 5.00 10.76   5
     -2.80 2.34 10.40   -0.19 5.00 11.83   23
     -1.92 2.34 9.76   1.42 5.00 11.83   -1
     -1.92 2.34 9.76   -0.19 5.00 11.83   22
     -1.42 2.34 9.76   1.42 5.00 11.83   3
     -0.76 -1.90 9.40   5.00 5.00 11.83   -1
     -0.76 -1.90 9.40   5.00 2.75 11.83   -1
     -0.76 -1.90 9.40   5.00 2.34 11.83   -1
     -0.76 -1.90 11.18   2.77 2.34 11.83   9
     1.90 -1.74 9.40   5.00 1.81 11.51   7
     2.77 1.42 9.40   5.00 2.75 11.24   -1
     2.77 1.81 10.40   5.00 2.75 11.24   19
     2.77 1.42 9.40   5.00 1.92 11.18   18
     -0.19 1.81 9.76   5.00 5.00 11.83   -1
     -0.19 1.81 9.76   3.10 5.00 11.83   -1
     -0.19 1.81 9.76   2.77 5.00 11.83   2
     1.42 2.75 9.76   3.10 5.00 11.24   21
     1.42 1.81 9.76   5.00 5.00 11.24   -1
     1.42 1.81 9.76   3.10 5.00 11.24   20
     1.92 1.92 10.40   5.00 5.00 11.24   -1
     1.92 2.75 10.76   5.00 5.00 11.24   1
     3.10 1.92 10.40   5.00 5.00 11.24   0
endnode
node trimesh mountain60
  parent az2_m06_01
  position 0 0 -9.75793
  orientation 0 0 1 -1.5708
  wirecolor 0.554688 0.554688 0.554688
  ambient 0.588 0.588 0.588
  diffuse 0.588 0.588 0.588
  specular 0 0 0
  shininess 10
  bitmap tts01_grass02
  render 1
  Shadow 1
  beaming 0
  transparencyhint 0
  tilefade 0
  rotatetexture 0
  verts 48
    1.42 5.00003 9.75793
    -1.42 5.00003 9.75793
    5 1.42003 9.39793
    2.77 1.81003 11.1779
    -0.19 2.34003 11.8279
    -5 1.42003 9.75793
    5 -1.41997 9.39793
    1.9 -1.73997 11.5079
    -0.76 -1.89997 11.5079
    -5 -1.41997 9.75793
    1.42 -4.99997 9.75793
    -1.42 -4.99997 9.75793
    5 5.00003 10.7579
    1.92 5.00003 10.7579
    -1.92 5.00003 10.7579
    -5 5.00002 10.7579
    5 1.92003 10.3979
    3.1 2.75003 11.2379
    -2.8 2.66003 10.3979
    -5 1.92003 10.7579
    5 -1.91997 10.3979
    3.1 -2.61997 11.4479
    -2.4 -2.43997 10.9379
    -5 -1.91997 10.7579
    5 -4.99997 10.7579
    1.92 -4.99997 10.7579
    -1.92 -4.99997 10.7579
    -5 -4.99997 10.7579
    9 9.00003 2.75793
    4.09 8.41003 2.75793
    1.99 9.50003 1.75793
    -1.62 8.21002 1.75793
    -4.17 8.34002 2.75793
    -9 9.00002 2.75793
    8.15 3.45003 2.75793
    -8.55 4.60002 2.75793
    8.21 0.450026 1.75793
    -7.33 1.73002 1.75793
    9 -1.41997 2.50793
    -9.13 -0.00997524 1.75793
    8.21 -4.86997 3.50793
    -9.58 -4.67998 2.75793
    9 -8.99997 2.75793
    -9 -8.99998 2.75793
    4.35 -9.37997 2.75793
    1.41 -9.69997 1.75793
    -0.969999 -9.56997 2.76793
    -2.63 -9.05997 2.75793
  faces 74
    16 12 17  0  48 49 50  0
    13 17 12  0  51 52 53  0
    3 0 4  0  54 55 56  0
    1 4 0  0  57 58 59  0
    18 14 19  0  60 61 62  0
    15 19 14  0  63 64 65  0
    6 2 7  0  66 67 68  0
    3 7 2  0  69 70 71  0
    7 3 8  0  72 73 74  0
    4 8 3  0  75 76 77  0
    8 4 9  0  78 79 80  0
    5 9 4  0  81 82 83  0
    24 20 25  0  84 85 86  0
    21 25 20  0  87 88 89  0
    10 7 11  0  90 91 92  0
    8 11 7  0  93 94 95  0
    26 22 27  0  96 97 98  0
    23 27 22  0  99 100 101  0
    3 2 16  0  102 103 104  0
    16 17 3  0  105 106 107  0
    0 3 17  0  108 3 109  0
    17 13 0  0  17 110 111  0
    4 1 14  0  112 113 114  0
    14 18 4  0  115 116 117  0
    5 4 18  0  118 4 119  0
    18 19 5  0  18 120 121  0
    6 7 21  0  122 123 124  0
    21 20 6  0  125 126 127  0
    8 9 23  0  128 129 130  0
    23 22 8  0  131 132 133  0
    7 10 25  0  134 135 136  0
    25 21 7  0  137 21 7  0
    11 8 22  0  138 8 139  0
    22 26 11  0  22 140 141  0
    12 28 13  0  142 143 144  0
    29 13 28  0  145 146 147  0
    13 29 0  0  13 148 149  0
    30 0 29  0  150 151 29  0
    0 30 1  0  0 152 153  0
    31 1 30  0  154 155 30  0
    1 31 14  0  1 156 157  0
    32 14 31  0  158 159 31  0
    14 32 15  0  14 160 161  0
    33 15 32  0  162 163 32  0
    34 28 16  0  164 165 166  0
    12 16 28  0  12 167 28  0
    19 15 35  0  168 169 170  0
    33 35 15  0  33 171 15  0
    36 34 2  0  172 173 174  0
    16 2 34  0  16 175 34  0
    5 19 37  0  176 177 178  0
    35 37 19  0  35 179 19  0
    38 36 6  0  180 181 182  0
    2 6 36  0  2 183 36  0
    9 5 39  0  184 185 186  0
    37 39 5  0  37 187 5  0
    40 38 20  0  188 189 190  0
    6 20 38  0  6 191 38  0
    23 9 41  0  192 193 194  0
    39 41 9  0  39 195 9  0
    42 40 24  0  196 197 198  0
    20 24 40  0  20 199 40  0
    27 23 43  0  200 201 202  0
    41 43 23  0  41 203 23  0
    42 24 44  0  42 204 205  0
    25 44 24  0  206 207 24  0
    44 25 45  0  44 208 209  0
    10 45 25  0  210 211 25  0
    45 10 46  0  45 212 213  0
    11 46 10  0  214 215 10  0
    46 11 47  0  46 216 217  0
    26 47 11  0  218 219 11  0
    47 26 43  0  47 220 221  0
    27 43 26  0  27 43 26  0
  tverts 222
    0.425263 0.5 0.236841
    0.574737 0.5 0.236841
    0.574737 0.481053 0.236842
    0.35421 0.404736 0.574737
    0.51 0.376841 0.608947
    0.763158 0.5 0.425262
    0.236842 0.481053 0.574736
    0.4 0.591578 0.592105
    0.54 0.599999 0.592105
    0.574736 0.5 0.763158
    0.574737 0.5 0.763157
    0.425263 0.5 0.763157
    0.763159 0.552632 0.236842
    0.398947 0.552632 0.236841
    0.601053 0.552632 0.236841
    0.236841 0.552632 0.763158
    0.601053 0.533684 0.236842
    0.355263 0.577895 0.336842
    0.352632 0.533684 0.359999
    0.398947 0.552632 0.763158
    0.398948 0.533684 0.236842
    0.336842 0.637894 0.588947
    0.37158 0.562105 0.626316
    0.601052 0.552632 0.763158
    0.763158 0.552632 0.763157
    0.763157 0.552632 0.398947
    0.398947 0.552632 0.763157
    0.236842 0.552632 0.763157
    0.973685 0.131579 0.0263157
    0.284737 0.131579 0.0573678
    0.395263 0.0789474 0
    0.585263 0.0789474 0.0678941
    0.719474 0.131579 0.061052
    0.0263151 0.131579 0.973684
    0.68158 0.131579 0.0710526
    0.257894 0.131579 0.95
    0.523685 0.0789474 0.0678948
    0.885789 0.0789474 0.408947
    0.0263158 0.118421 0.574736
    0.500526 0.0789474 0.980526
    0.243685 0.171053 0.0678948
    0.746315 0.131579 1.00421
    0.973684 0.131579 0.973684
    0.0263158 0.131579 0.973683
    0.728947 0.131579 0.993684
    0.57421 0.0789474 1.01053
    0.448947 0.132105 1.00368
    0.361579 0.131579 0.976841
    0.236842 0.398947 0.533684
    0.236842 0.236841 0.552632
    0.336842 0.355263 0.577895
    0.398947 0.236841 0.552632
    0.336842 0.355263 0.577895
    0.236842 0.236841 0.552632
    0.35421 0.404736 0.574737
    0.425263 0.236841 0.5
    0.51 0.376841 0.608947
    0.574737 0.236841 0.5
    0.51 0.376841 0.608947
    0.425263 0.236841 0.5
    0.647368 0.359999 0.533684
    0.601053 0.236841 0.552632
    0.763158 0.398947 0.552632
    0.763158 0.236841 0.552632
    0.763158 0.398947 0.552632
    0.601053 0.236841 0.552632
    0.236842 0.574736 0.481053
    0.236842 0.425263 0.481053
    0.4 0.591578 0.592105
    0.35421 0.404736 0.574737
    0.4 0.591578 0.592105
    0.236842 0.425263 0.481053
    0.4 0.591578 0.592105
    0.35421 0.404736 0.574737
    0.54 0.599999 0.592105
    0.51 0.376841 0.608947
    0.54 0.599999 0.592105
    0.35421 0.404736 0.574737
    0.54 0.599999 0.592105
    0.51 0.376841 0.608947
    0.763158 0.574736 0.5
    0.763158 0.425262 0.5
    0.763158 0.574736 0.5
    0.51 0.376841 0.608947
    0.236842 0.763157 0.552632
    0.236842 0.601052 0.533684
    0.398947 0.763157 0.552632
    0.336842 0.637894 0.588947
    0.398947 0.763157 0.552632
    0.236842 0.601052 0.533684
    0.425263 0.763157 0.5
    0.4 0.591578 0.592105
    0.574737 0.763157 0.5
    0.54 0.599999 0.592105
    0.574737 0.763157 0.5
    0.4 0.591578 0.592105
    0.601053 0.763157 0.552632
    0.626316 0.62842 0.562105
    0.763158 0.763157 0.552632
    0.763158 0.601052 0.552632
    0.763158 0.763157 0.552632
    0.626316 0.62842 0.562105
    0.64579 0.574737 0.404736
    0.763158 0.481053 0.425263
    0.763158 0.533684 0.398947
    0.236842 0.398947 0.533684
    0.336842 0.355263 0.577895
    0.35421 0.404736 0.574737
    0.425263 0.236841 0.5
    0.336842 0.355263 0.577895
    0.236841 0.552632 0.398947
    0.236841 0.5 0.425263
    0.623159 0.608947 0.51
    0.763159 0.5 0.574737
    0.763159 0.552632 0.601053
    0.601053 0.236841 0.552632
    0.647368 0.359999 0.533684
    0.51 0.376841 0.608947
    0.763158 0.425262 0.5
    0.647368 0.359999 0.533684
    0.236842 0.552632 0.398947
    0.236842 0.5 0.425262
    0.236842 0.574736 0.481053
    0.4 0.591578 0.592105
    0.336842 0.637894 0.588947
    0.336842 0.588947 0.637894
    0.236842 0.533684 0.601052
    0.236842 0.481053 0.574736
    0.54 0.592105 0.599999
    0.763158 0.5 0.574736
    0.763158 0.552632 0.601052
    0.763158 0.601052 0.552632
    0.626316 0.62842 0.562105
    0.54 0.599999 0.592105
    0.591578 0.592105 0.4
    0.763157 0.5 0.425263
    0.763157 0.552632 0.398947
    0.398947 0.763157 0.552632
    0.574737 0.763157 0.5
    0.626316 0.62842 0.562105
    0.236843 0.552632 0.601053
    0.236843 0.5 0.574737
    0.236842 0.552632 0.236841
    0.0263157 0.131579 0.0263152
    0.398947 0.552632 0.236841
    0.284737 0.131579 0.0573678
    0.398947 0.552632 0.236841
    0.0263157 0.131579 0.0263152
    0.284737 0.131579 0.0573678
    0.425263 0.5 0.236841
    0.395263 0.0789474 0
    0.425263 0.5 0.236841
    0.395263 0.0789474 0
    0.574737 0.5 0.236841
    0.585263 0.0789474 0.0678941
    0.574737 0.5 0.236841
    0.585263 0.0789474 0.0678941
    0.601053 0.552632 0.236841
    0.719474 0.131579 0.061052
    0.601053 0.552632 0.236841
    0.719474 0.131579 0.061052
    0.763158 0.552632 0.236841
    0.973684 0.131579 0.0263151
    0.763158 0.552632 0.236841
    0.68158 0.131579 0.0710526
    0.973685 0.131579 0.0263157
    0.601053 0.533684 0.236842
    0.601053 0.533684 0.236842
    0.398947 0.552632 0.763158
    0.236841 0.552632 0.763158
    0.257894 0.131579 0.95
    0.257894 0.131579 0.95
    0.523685 0.0789474 0.0678948
    0.68158 0.131579 0.0710526
    0.574737 0.481053 0.236842
    0.574737 0.481053 0.236842
    0.425262 0.5 0.763158
    0.398947 0.552632 0.763158
    0.408947 0.0789474 0.885789
    0.408947 0.0789474 0.885789
    0.425264 0.118421 0.0263158
    0.523685 0.0789474 0.0678948
    0.425264 0.481053 0.236842
    0.425264 0.481053 0.236842
    0.574736 0.5 0.763158
    0.425262 0.5 0.763158
    0.500526 0.0789474 0.980526
    0.980526 0.0789474 0.500526
    0.243685 0.171053 0.0678948
    0.425264 0.118421 0.0263158
    0.398948 0.533684 0.236842
    0.236842 0.533684 0.601052
    0.601052 0.552632 0.763158
    0.574736 0.5 0.763158
    0.746315 0.131579 1.00421
    0.746315 0.131579 1.00421
    0.0263164 0.131579 0.0263158
    0.243685 0.171053 0.0678948
    0.236843 0.552632 0.236842
    0.236843 0.552632 0.236842
    0.763157 0.552632 0.763158
    0.601052 0.552632 0.763158
    0.973683 0.131579 0.973684
    0.973683 0.131579 0.973684
    0.763158 0.552632 0.763157
    0.728947 0.131579 0.993684
    0.601053 0.552632 0.763157
    0.728947 0.131579 0.993684
    0.601053 0.552632 0.763157
    0.57421 0.0789474 1.01053
    0.763157 0.5 0.425263
    1.01053 0.0789474 0.42579
    0.574737 0.5 0.763157
    0.448947 0.132105 1.00368
    0.425263 0.5 0.763157
    0.448947 0.132105 1.00368
    0.425263 0.5 0.763157
    0.361579 0.131579 0.976841
    0.398947 0.552632 0.763157
    0.361579 0.131579 0.976841
    0.398947 0.552632 0.763157
    0.0263158 0.131579 0.973683
endnode
endmodelgeom az2_m06_01
donemodel az2_m06_01
